output.lp
minimize
X

subject to
A1: W_0_0 = 1
A2: W_0_1 = 1
A3: W_0_2 = 1
A4: W_0_3 = 1
A5: W_0_4 = 1
A6: W_0_5 = 1
A7: W_0_6 = 1
A8: W_0_7 = 1
A9: W_0_8 = 1
A10: W_1_0 = 1
A11: W_1_7 = 1
A12: W_2_0 = 1
A13: W_2_8 = 1
A14: W_3_0 = 1
A15: W_3_7 = 1
A16: W_4_0 = 1
A17: W_4_8 = 1
A18: W_5_0 = 1
A19: W_5_7 = 1
A20: W_6_0 = 1
A21: W_6_8 = 1
A22: W_7_0 = 1
A23: W_7_7 = 1
A24: W_8_0 = 1
A25: W_8_1 = 1
A26: W_8_2 = 1
A27: W_8_3 = 1
A28: W_8_4 = 1
A29: W_8_5 = 1
A30: W_8_6 = 1
A31: W_8_7 = 1
A32: W_8_8 = 1
B1: B_0_0 + W_0_0 = 1
B2: B_0_1 + W_0_1 = 1
B3: B_0_2 + W_0_2 = 1
B4: B_0_3 + W_0_3 = 1
B5: B_0_4 + W_0_4 = 1
B6: B_0_5 + W_0_5 = 1
B7: B_0_6 + W_0_6 = 1
B8: B_0_7 + W_0_7 = 1
B9: B_0_8 + W_0_8 = 1
B10: B_1_0 + W_1_0 = 1
B11: B_1_1 + W_1_1 = 1
B12: B_1_2 + W_1_2 = 1
B13: B_1_3 + W_1_3 = 1
B14: B_1_4 + W_1_4 = 1
B15: B_1_5 + W_1_5 = 1
B16: B_1_6 + W_1_6 = 1
B17: B_1_7 + W_1_7 = 1
B18: B_2_0 + W_2_0 = 1
B19: B_2_1 + W_2_1 = 1
B20: B_2_2 + W_2_2 = 1
B21: B_2_3 + W_2_3 = 1
B22: B_2_4 + W_2_4 = 1
B23: B_2_5 + W_2_5 = 1
B24: B_2_6 + W_2_6 = 1
B25: B_2_7 + W_2_7 = 1
B26: B_2_8 + W_2_8 = 1
B27: B_3_0 + W_3_0 = 1
B28: B_3_1 + W_3_1 = 1
B29: B_3_2 + W_3_2 = 1
B30: B_3_3 + W_3_3 = 1
B31: B_3_4 + W_3_4 = 1
B32: B_3_5 + W_3_5 = 1
B33: B_3_6 + W_3_6 = 1
B34: B_3_7 + W_3_7 = 1
B35: B_4_0 + W_4_0 = 1
B36: B_4_1 + W_4_1 = 1
B37: B_4_2 + W_4_2 = 1
B38: B_4_3 + W_4_3 = 1
B39: B_4_4 + W_4_4 = 1
B40: B_4_5 + W_4_5 = 1
B41: B_4_6 + W_4_6 = 1
B42: B_4_7 + W_4_7 = 1
B43: B_4_8 + W_4_8 = 1
B44: B_5_0 + W_5_0 = 1
B45: B_5_1 + W_5_1 = 1
B46: B_5_2 + W_5_2 = 1
B47: B_5_3 + W_5_3 = 1
B48: B_5_4 + W_5_4 = 1
B49: B_5_5 + W_5_5 = 1
B50: B_5_6 + W_5_6 = 1
B51: B_5_7 + W_5_7 = 1
B52: B_6_0 + W_6_0 = 1
B53: B_6_1 + W_6_1 = 1
B54: B_6_2 + W_6_2 = 1
B55: B_6_3 + W_6_3 = 1
B56: B_6_4 + W_6_4 = 1
B57: B_6_5 + W_6_5 = 1
B58: B_6_6 + W_6_6 = 1
B59: B_6_7 + W_6_7 = 1
B60: B_6_8 + W_6_8 = 1
B61: B_7_0 + W_7_0 = 1
B62: B_7_1 + W_7_1 = 1
B63: B_7_2 + W_7_2 = 1
B64: B_7_3 + W_7_3 = 1
B65: B_7_4 + W_7_4 = 1
B66: B_7_5 + W_7_5 = 1
B67: B_7_6 + W_7_6 = 1
B68: B_7_7 + W_7_7 = 1
B69: B_8_0 + W_8_0 = 1
B70: B_8_1 + W_8_1 = 1
B71: B_8_2 + W_8_2 = 1
B72: B_8_3 + W_8_3 = 1
B73: B_8_4 + W_8_4 = 1
B74: B_8_5 + W_8_5 = 1
B75: B_8_6 + W_8_6 = 1
B76: B_8_7 + W_8_7 = 1
B77: B_8_8 + W_8_8 = 1
C1: W_1_4 = 1
C2: W_2_1 = 1
C3: W_3_2 = 1
C4: W_4_1 = 1
C5: W_4_5 = 1
C6: W_4_6 = 1
C7: W_6_2 = 1
C8: W_6_6 = 1
D1: B_0_4 +  B_1_3 +  B_2_4 +  B_2_5 +  B_1_5 +  B_0_5 = 4
D2: B_1_0 +  B_2_0 +  B_3_0 +  B_3_1 +  B_2_2 +  B_1_1 = 3
D3: B_2_2 +  B_3_1 +  B_4_2 +  B_4_3 +  B_3_3 +  B_2_3 = 4
D4: B_3_0 +  B_4_0 +  B_5_0 +  B_5_1 +  B_4_2 +  B_3_1 = 2
D5: B_3_4 +  B_4_4 +  B_5_4 +  B_5_5 +  B_4_6 +  B_3_5 = 3
D6: B_3_5 +  B_4_5 +  B_5_5 +  B_5_6 +  B_4_7 +  B_3_6 = 0
D7: B_5_1 +  B_6_1 +  B_7_1 +  B_7_2 +  B_6_3 +  B_5_2 = 2
D8: B_5_5 +  B_6_5 +  B_7_5 +  B_7_6 +  B_6_7 +  B_5_6 = 4
E1: B_2_1 +  B_2_2 -  B_1_1 >= 0
E2: B_2_2 +  B_2_3 -  B_1_2 >= 0
E3: B_2_3 +  B_2_4 -  B_1_3 >= 0
E4: B_2_4 +  B_2_5 -  B_1_4 >= 0
E5: B_2_5 +  B_2_6 -  B_1_5 >= 0
E6: B_2_6 +  B_2_7 -  B_1_6 >= 0
E7: B_3_0 +  B_3_1 -  B_2_1 >= 0
E8: B_3_1 +  B_3_2 -  B_2_2 >= 0
E9: B_3_2 +  B_3_3 -  B_2_3 >= 0
E10: B_3_3 +  B_3_4 -  B_2_4 >= 0
E11: B_3_4 +  B_3_5 -  B_2_5 >= 0
E12: B_3_5 +  B_3_6 -  B_2_6 >= 0
E13: B_3_6 +  B_3_7 -  B_2_7 >= 0
E14: B_4_1 +  B_4_2 -  B_3_1 >= 0
E15: B_4_2 +  B_4_3 -  B_3_2 >= 0
E16: B_4_3 +  B_4_4 -  B_3_3 >= 0
E17: B_4_4 +  B_4_5 -  B_3_4 >= 0
E18: B_4_5 +  B_4_6 -  B_3_5 >= 0
E19: B_4_6 +  B_4_7 -  B_3_6 >= 0
E20: B_5_0 +  B_5_1 -  B_4_1 >= 0
E21: B_5_1 +  B_5_2 -  B_4_2 >= 0
E22: B_5_2 +  B_5_3 -  B_4_3 >= 0
E23: B_5_3 +  B_5_4 -  B_4_4 >= 0
E24: B_5_4 +  B_5_5 -  B_4_5 >= 0
E25: B_5_5 +  B_5_6 -  B_4_6 >= 0
E26: B_5_6 +  B_5_7 -  B_4_7 >= 0
E27: B_6_1 +  B_6_2 -  B_5_1 >= 0
E28: B_6_2 +  B_6_3 -  B_5_2 >= 0
E29: B_6_3 +  B_6_4 -  B_5_3 >= 0
E30: B_6_4 +  B_6_5 -  B_5_4 >= 0
E31: B_6_5 +  B_6_6 -  B_5_5 >= 0
E32: B_6_6 +  B_6_7 -  B_5_6 >= 0
E33: B_7_0 +  B_7_1 -  B_6_1 >= 0
E34: B_7_1 +  B_7_2 -  B_6_2 >= 0
E35: B_7_2 +  B_7_3 -  B_6_3 >= 0
E36: B_7_3 +  B_7_4 -  B_6_4 >= 0
E37: B_7_4 +  B_7_5 -  B_6_5 >= 0
E38: B_7_5 +  B_7_6 -  B_6_6 >= 0
E39: B_7_6 +  B_7_7 -  B_6_7 >= 0
F1: B_1_1 + B_1_2 + B_1_3 < 3
F2: B_1_2 + B_1_3 + B_1_4 < 3
F3: B_1_3 + B_1_4 + B_1_5 < 3
F4: B_1_4 + B_1_5 + B_1_6 < 3
F5: B_2_1 + B_2_2 + B_2_3 < 3
F6: B_2_2 + B_2_3 + B_2_4 < 3
F7: B_2_3 + B_2_4 + B_2_5 < 3
F8: B_2_4 + B_2_5 + B_2_6 < 3
F9: B_2_5 + B_2_6 + B_2_7 < 3
F10: B_3_1 + B_3_2 + B_3_3 < 3
F11: B_3_2 + B_3_3 + B_3_4 < 3
F12: B_3_3 + B_3_4 + B_3_5 < 3
F13: B_3_4 + B_3_5 + B_3_6 < 3
F14: B_4_1 + B_4_2 + B_4_3 < 3
F15: B_4_2 + B_4_3 + B_4_4 < 3
F16: B_4_3 + B_4_4 + B_4_5 < 3
F17: B_4_4 + B_4_5 + B_4_6 < 3
F18: B_4_5 + B_4_6 + B_4_7 < 3
F19: B_5_1 + B_5_2 + B_5_3 < 3
F20: B_5_2 + B_5_3 + B_5_4 < 3
F21: B_5_3 + B_5_4 + B_5_5 < 3
F22: B_5_4 + B_5_5 + B_5_6 < 3
F23: B_6_1 + B_6_2 + B_6_3 < 3
F24: B_6_2 + B_6_3 + B_6_4 < 3
F25: B_6_3 + B_6_4 + B_6_5 < 3
F26: B_6_4 + B_6_5 + B_6_6 < 3
F27: B_6_5 + B_6_6 + B_6_7 < 3
F28: B_7_1 + B_7_2 + B_7_3 < 3
F29: B_7_2 + B_7_3 + B_7_4 < 3
F30: B_7_3 + B_7_4 + B_7_5 < 3
F31: B_7_4 + B_7_5 + B_7_6 < 3

bounds

binary
B_0_0 B_0_1 B_0_2 B_0_3 B_0_4 B_0_5 B_0_6 B_0_7 B_0_8 
B_1_0 B_1_1 B_1_2 B_1_3 B_1_4 B_1_5 B_1_6 B_1_7 
B_2_0 B_2_1 B_2_2 B_2_3 B_2_4 B_2_5 B_2_6 B_2_7 B_2_8 
B_3_0 B_3_1 B_3_2 B_3_3 B_3_4 B_3_5 B_3_6 B_3_7 
B_4_0 B_4_1 B_4_2 B_4_3 B_4_4 B_4_5 B_4_6 B_4_7 B_4_8 
B_5_0 B_5_1 B_5_2 B_5_3 B_5_4 B_5_5 B_5_6 B_5_7 
B_6_0 B_6_1 B_6_2 B_6_3 B_6_4 B_6_5 B_6_6 B_6_7 B_6_8 
B_7_0 B_7_1 B_7_2 B_7_3 B_7_4 B_7_5 B_7_6 B_7_7 
B_8_0 B_8_1 B_8_2 B_8_3 B_8_4 B_8_5 B_8_6 B_8_7 B_8_8 
W_0_0 W_0_1 W_0_2 W_0_3 W_0_4 W_0_5 W_0_6 W_0_7 W_0_8 
W_1_0 W_1_1 W_1_2 W_1_3 W_1_4 W_1_5 W_1_6 W_1_7 
W_2_0 W_2_1 W_2_2 W_2_3 W_2_4 W_2_5 W_2_6 W_2_7 W_2_8 
W_3_0 W_3_1 W_3_2 W_3_3 W_3_4 W_3_5 W_3_6 W_3_7 
W_4_0 W_4_1 W_4_2 W_4_3 W_4_4 W_4_5 W_4_6 W_4_7 W_4_8 
W_5_0 W_5_1 W_5_2 W_5_3 W_5_4 W_5_5 W_5_6 W_5_7 
W_6_0 W_6_1 W_6_2 W_6_3 W_6_4 W_6_5 W_6_6 W_6_7 W_6_8 
W_7_0 W_7_1 W_7_2 W_7_3 W_7_4 W_7_5 W_7_6 W_7_7 
W_8_0 W_8_1 W_8_2 W_8_3 W_8_4 W_8_5 W_8_6 W_8_7 W_8_8 

general

end
