output.txt
minimize
X

subject to
A:1 B_1_1 + W_1_1 = 1
A:2 B_1_2 + W_1_2 = 1
A:3 B_1_3 + W_1_3 = 1
A:4 B_1_4 + W_1_4 = 1
A:5 B_1_5 + W_1_5 = 1
A:6 B_1_6 + W_1_6 = 1
A:7 B_2_1 + W_2_1 = 1
A:8 B_2_2 + W_2_2 = 1
A:9 B_2_3 + W_2_3 = 1
A:10 B_2_4 + W_2_4 = 1
A:11 B_2_5 + W_2_5 = 1
A:12 B_2_6 + W_2_6 = 1
A:13 B_2_7 + W_2_7 = 1
A:14 B_3_1 + W_3_1 = 1
A:15 B_3_2 + W_3_2 = 1
A:16 B_3_3 + W_3_3 = 1
A:17 B_3_4 + W_3_4 = 1
A:18 B_3_5 + W_3_5 = 1
A:19 B_3_6 + W_3_6 = 1
A:20 B_4_1 + W_4_1 = 1
A:21 B_4_2 + W_4_2 = 1
A:22 B_4_3 + W_4_3 = 1
A:23 B_4_4 + W_4_4 = 1
A:24 B_4_5 + W_4_5 = 1
A:25 B_4_6 + W_4_6 = 1
A:26 B_4_7 + W_4_7 = 1
A:27 B_5_1 + W_5_1 = 1
A:28 B_5_2 + W_5_2 = 1
A:29 B_5_3 + W_5_3 = 1
A:30 B_5_4 + W_5_4 = 1
A:31 B_5_5 + W_5_5 = 1
A:32 B_5_6 + W_5_6 = 1
A:33 B_6_1 + W_6_1 = 1
A:34 B_6_2 + W_6_2 = 1
A:35 B_6_3 + W_6_3 = 1
A:36 B_6_4 + W_6_4 = 1
A:37 B_6_5 + W_6_5 = 1
A:38 B_6_6 + W_6_6 = 1
A:39 B_6_7 + W_6_7 = 1
A:40 B_7_1 + W_7_1 = 1
A:41 B_7_2 + W_7_2 = 1
A:42 B_7_3 + W_7_3 = 1
A:43 B_7_4 + W_7_4 = 1
A:44 B_7_5 + W_7_5 = 1
A:45 B_7_6 + W_7_6 = 1
B:1 W_1_4 = 1
B:2 W_2_1 = 1
B:3 W_3_2 = 1
B:4 W_4_1 = 1
B:5 W_4_5 = 1
B:6 W_4_6 = 1
B:7 W_6_2 = 1
B:8 W_6_6 = 1
C:1 B_0_4 +  B_1_3 +  B_2_4 +  B_2_5 +  B_1_5 +  B_0_5 = 4
C:1 B_1_1 +  B_2_0 +  B_3_1 +  B_3_2 +  B_2_2 +  B_1_2 = 3
C:1 B_2_2 +  B_3_1 +  B_4_2 +  B_4_3 +  B_3_3 +  B_2_3 = 4
C:1 B_3_1 +  B_4_0 +  B_5_1 +  B_5_2 +  B_4_2 +  B_3_2 = 2
C:1 B_3_5 +  B_4_4 +  B_5_5 +  B_5_6 +  B_4_6 +  B_3_6 = 3
C:1 B_3_6 +  B_4_5 +  B_5_6 +  B_5_7 +  B_4_7 +  B_3_7 = 0
C:1 B_5_2 +  B_6_1 +  B_7_2 +  B_7_3 +  B_6_3 +  B_5_3 = 2
C:1 B_5_6 +  B_6_5 +  B_7_6 +  B_7_7 +  B_6_7 +  B_5_7 = 4
